p cnf 50 50
-9 -4 25 0
21 -30 -6 0
44 31 28 0
-42 -48 -39 0
48 45 -13 0
21 -46 -35 0
-38 -34 -49 0
36 -7 -20 0
50 -12 19 0
-31 -29 -37 0
5 -36 -27 0
33 47 14 0
-48 -15 17 0
-4 -48 17 0
45 -47 48 0
18 46 -4 0
-37 -8 -4 0
-49 -41 26 0
14 4 8 0
41 23 46 0
-32 45 -22 0
-16 43 -49 0
44 43 39 0
36 -32 -14 0
-12 28 43 0
-21 -4 -32 0
-47 43 -8 0
-16 -6 25 0
2 19 21 0
-45 -41 -7 0
11 50 -18 0
-9 25 -31 0
-12 -33 43 0
10 -16 -31 0
-41 -27 13 0
23 -18 -41 0
-10 44 -31 0
17 -40 26 0
-44 -38 -49 0
-50 40 37 0
26 -50 -5 0
-13 -4 -24 0
3 31 39 0
27 32 18 0
11 -40 -50 0
13 -9 -31 0
-47 -26 -27 0
-17 -12 -6 0
24 -49 -8 0
-2 48 25 0
